z3_origin/DDC_ProveIneq_ISSAC10_ex1d.txt
sat
(:max-memory         18.42
 :memory             18.42
 :nlsat-arith-var    4
 :nlsat-atoms        17
 :nlsat-bool-var     1
 :nlsat-clauses      17
 :nlsat-propagations 13
 :nlsat-stages       5
 :num-allocs         41680
 :rlimit-count       3199
 :time               0.00
 :total-time         0.02)
